20 64 
1 5 1
1 8 1
1 10 1
2 5 1
2 6 1
2 10 1
2 11 1
2 12 1
2 15 1
2 16 1
3 5 1
3 6 1
3 7 1
3 15 1
3 17 1
4 5 1
4 6 1
4 7 1
4 8 1
4 9 1
4 11 1
4 18 1
4 20 1
5 6 1
5 7 1
5 8 1
5 9 1
5 10 1
5 13 1
5 15 1
5 16 1
5 17 1
5 19 1
6 7 1
6 9 1
6 11 1
7 8 1
7 9 1
7 13 1
7 15 1
8 17 1
9 10 1
9 12 1
9 14 1
9 19 1
10 11 1
10 12 1
10 13 1
10 14 1
10 17 1
10 18 1
10 20 1
11 12 1
11 14 1
12 13 1
13 14 1
14 16 1
14 19 1
14 20 1
15 16 1
15 18 1
16 18 1
16 19 1
16 20 1
